n_machines = 10;
n_resources = 20;
n_jobs = 108;
horizon = 53739;
LB = 5695;
n_jobs_per_resource = [3, 1, 7, 5, 9, 8, 8, 5, 6, 1, 9, 4, 5, 1, 7, 7, 8, 5, 6, 3];
duration = [283, 514, 161, 23, 163, 858, 22, 479, 518, 536, 75, 392, 873, 792, 378, 277, 513, 615, 88, 165, 804, 399, 441, 643, 948, 206, 770, 318, 220, 642, 477, 882, 803, 619, 967, 562, 398, 181, 30, 783, 986, 272, 518, 410, 383, 942, 331, 42, 416, 200, 520, 403, 134, 893, 582, 195, 884, 688, 504, 642, 550, 757, 355, 806, 35, 193, 579, 663, 921, 3, 497, 309, 519, 594, 501, 213, 468, 359, 794, 792, 783, 641, 38, 891, 632, 480, 892, 183, 559, 976, 320, 450, 907, 335, 686, 141, 967, 146, 388, 16, 368, 683, 645, 328, 978, 503, 171, 961]